c uprop, v00.0, 
c reading from data/prog982.c.cnf
c done reading: 0.002917
p cnf 219 1108
-124 -145 0
-124 -141 0
124 141 145 0
-118 141 145 0
-118 -141 -145 0
118 141 -145 0
118 -141 145 0
124 -136 0
-134 -136 0
-124 134 136 0
-124 -129 134 0
124 -129 -134 0
124 129 134 0
-124 129 -134 0
-125 136 0
-122 -125 0
122 125 -136 0
-120 122 -136 0
-120 -122 136 0
120 122 136 0
120 -122 -136 0
-119 125 0
-116 -119 0
116 119 -125 0
116 -125 -143 0
-116 125 -143 0
116 125 143 0
-116 -125 143 0
119 -147 0
-138 -147 0
-119 138 147 0
-119 138 -148 0
119 -138 -148 0
119 138 148 0
-119 -138 148 0
147 -149 0
-131 -149 0
131 -147 149 0
131 -147 -150 0
-131 147 -150 0
131 147 150 0
-131 -147 150 0
149 -151 0
-127 -151 0
127 -149 151 0
127 -149 -152 0
-127 149 -152 0
127 149 152 0
-127 -149 152 0
141 -153 0
145 -153 0
-141 -145 153 0
-141 -145 -154 0
141 145 -154 0
-141 145 154 0
141 -145 154 0
-134 -141 155 0
-134 -153 155 0
-141 -153 155 0
134 141 -155 0
134 153 -155 0
141 153 -155 0
134 -155 -156 0
141 -155 -156 0
153 -155 -156 0
-134 155 156 0
-141 155 156 0
-153 155 156 0
-134 -141 -153 156 0
134 141 153 -156 0
-122 -134 157 0
-122 -155 157 0
-134 -155 157 0
122 134 -157 0
122 155 -157 0
134 155 -157 0
122 -157 -158 0
134 -157 -158 0
155 -157 -158 0
-122 157 158 0
-134 157 158 0
-155 157 158 0
-122 -134 -155 158 0
122 134 155 -158 0
-116 -122 159 0
-116 -157 159 0
-122 -157 159 0
116 122 -159 0
116 157 -159 0
122 157 -159 0
-114 116 -159 0
-114 122 -159 0
-114 157 -159 0
114 -116 159 0
114 -122 159 0
114 -157 159 0
114 -116 -122 -157 0
-114 116 122 157 0
113 -116 -138 0
113 -138 -159 0
113 -116 -159 0
-113 116 138 0
-113 138 159 0
-113 116 159 0
-112 -113 138 0
-112 -113 116 0
-112 -113 159 0
112 113 -138 0
112 113 -116 0
112 113 -159 0
112 -116 -138 -159 0
-112 116 138 159 0
111 -131 -138 0
111 -113 -131 0
111 -113 -138 0
-111 131 138 0
-111 113 131 0
-111 113 138 0
-110 -111 131 0
-110 -111 138 0
-110 -111 113 0
110 111 -131 0
110 111 -138 0
110 111 -113 0
110 -113 -131 -138 0
-110 113 131 138 0
109 -127 -131 0
109 -111 -127 0
109 -111 -131 0
-109 127 131 0
-109 111 127 0
-109 111 131 0
-109 127 -144 0
-109 131 -144 0
-109 111 -144 0
109 -127 144 0
109 -131 144 0
109 -111 144 0
-111 -127 -131 144 0
111 127 131 -144 0
127 -140 0
109 -140 0
-109 -127 140 0
-109 -127 -133 0
109 127 -133 0
109 -127 133 0
-109 127 133 0
-121 156 0
-121 145 0
121 -145 -156 0
-115 -145 -156 0
-115 145 156 0
115 145 -156 0
115 -145 156 0
137 -141 -158 0
-121 137 -158 0
-121 137 -141 0
-137 141 158 0
121 -137 158 0
121 -137 141 0
-130 -137 158 0
-130 -137 141 0
121 -130 -137 0
130 137 -158 0
130 137 -141 0
-121 130 137 0
-121 130 -141 -158 0
121 -130 141 158 0
-114 126 -134 0
-114 126 -137 0
126 -134 -137 0
114 -126 134 0
114 -126 137 0
-126 134 137 0
-108 114 -126 0
-108 -126 134 0
-108 -126 137 0
108 -114 126 0
108 126 -134 0
108 126 -137 0
108 -114 -134 -137 0
-108 114 134 137 0
107 -112 -122 0
107 -112 -126 0
107 -122 -126 0
-107 112 122 0
-107 112 126 0
-107 122 126 0
-106 -107 112 0
-106 -107 122 0
-106 -107 126 0
106 107 -112 0
106 107 -122 0
106 107 -126 0
106 -112 -122 -126 0
-106 112 122 126 0
105 -110 -116 0
105 -107 -110 0
105 -107 -116 0
-105 110 116 0
-105 107 110 0
-105 107 116 0
-104 -105 110 0
-104 -105 116 0
-104 -105 107 0
104 105 -110 0
104 105 -116 0
104 105 -107 0
104 -107 -110 -116 0
-104 107 110 116 0
103 -138 -144 0
103 -105 -144 0
103 -105 -138 0
-103 138 144 0
-103 105 144 0
-103 105 138 0
-102 -103 144 0
-102 -103 138 0
-102 -103 105 0
102 103 -144 0
102 103 -138 0
102 103 -105 0
102 -105 -138 -144 0
-102 105 138 144 0
101 -131 -133 0
101 -103 -133 0
101 -103 -131 0
-101 131 133 0
-101 103 133 0
-101 103 131 0
-100 -101 133 0
-100 -101 131 0
-100 -101 103 0
100 101 -133 0
100 101 -131 0
100 101 -103 0
100 -103 -131 -133 0
-100 103 131 133 0
99 -127 -140 0
99 -101 -140 0
99 -101 -127 0
-99 127 140 0
-99 101 140 0
-99 101 127 0
-98 -99 140 0
-98 -99 127 0
-98 -99 101 0
98 99 -140 0
98 99 -127 0
98 99 -101 0
98 -101 -127 -140 0
-98 101 127 140 0
-97 106 0
-97 145 0
97 -106 -145 0
-96 -106 -145 0
-96 106 145 0
96 -106 145 0
96 106 -145 0
95 -104 -141 0
95 -97 -104 0
95 -97 -141 0
-95 104 141 0
-95 97 104 0
-95 97 141 0
-94 -95 104 0
-94 -95 141 0
-94 -95 97 0
94 95 -104 0
94 95 -141 0
94 95 -97 0
94 -97 -104 -141 0
-94 97 104 141 0
93 -102 -134 0
93 -95 -102 0
93 -95 -134 0
-93 102 134 0
-93 95 102 0
-93 95 134 0
-93 102 -160 0
-93 134 -160 0
-93 95 -160 0
93 -102 160 0
93 -134 160 0
93 -95 160 0
-95 -102 -134 160 0
95 102 134 -160 0
-100 -122 161 0
-93 -100 161 0
-93 -122 161 0
100 122 -161 0
93 100 -161 0
93 122 -161 0
100 -161 -162 0
122 -161 -162 0
93 -161 -162 0
-100 161 162 0
-122 161 162 0
-93 161 162 0
-93 -100 -122 162 0
93 100 122 -162 0
-98 -116 163 0
-98 -161 163 0
-116 -161 163 0
98 116 -163 0
98 161 -163 0
116 161 -163 0
98 -163 -164 0
116 -163 -164 0
161 -163 -164 0
-98 163 164 0
-116 163 164 0
-161 163 164 0
-98 -116 -161 164 0
98 116 161 -164 0
-99 -138 165 0
-99 -163 165 0
-138 -163 165 0
99 138 -165 0
99 163 -165 0
138 163 -165 0
99 -165 -166 0
138 -165 -166 0
163 -165 -166 0
-99 165 166 0
-138 165 166 0
-163 165 166 0
-99 -138 -163 166 0
99 138 163 -166 0
131 -167 0
165 -167 0
-131 -165 167 0
-131 -165 -168 0
131 165 -168 0
-131 165 168 0
131 -165 168 0
127 -169 0
167 -169 0
-127 -167 169 0
-127 -167 -170 0
127 167 -170 0
-127 167 170 0
127 -167 170 0
-145 -171 0
-154 -171 0
145 154 171 0
145 154 -172 0
-145 -154 -172 0
-145 154 172 0
145 -154 172 0
171 -173 0
-115 -173 0
115 -171 173 0
115 -171 -174 0
-115 171 -174 0
115 171 174 0
-115 -171 174 0
173 -175 0
-130 -175 0
130 -173 175 0
130 -173 -176 0
-130 173 -176 0
130 173 176 0
-130 -173 176 0
175 -177 0
-108 -177 0
108 -175 177 0
108 -175 -178 0
-108 175 -178 0
108 175 178 0
-108 -175 178 0
177 -179 0
-96 -179 0
96 -177 179 0
96 -177 -180 0
-96 177 -180 0
96 177 180 0
-96 -177 180 0
179 -181 0
-94 -181 0
94 -179 181 0
94 -179 -182 0
-94 179 -182 0
94 179 182 0
-94 -179 182 0
181 -183 0
-160 -183 0
160 -181 183 0
160 -181 -184 0
-160 181 -184 0
160 181 184 0
-160 -181 184 0
183 -185 0
-162 -185 0
162 -183 185 0
162 -183 -186 0
-162 183 -186 0
162 183 186 0
-162 -183 186 0
185 -187 0
-164 -187 0
164 -185 187 0
164 -185 -188 0
-164 185 -188 0
164 185 188 0
-164 -185 188 0
187 -189 0
-166 -189 0
166 -187 189 0
166 -187 -190 0
-166 187 -190 0
166 187 190 0
-166 -187 190 0
189 -191 0
-168 -191 0
168 -189 191 0
168 -189 -192 0
-168 189 -192 0
168 189 192 0
-168 -189 192 0
191 -193 0
-170 -193 0
170 -191 193 0
170 -191 -194 0
-170 191 -194 0
170 191 194 0
-170 -191 194 0
193 -195 0
-169 -195 0
169 -193 195 0
169 -193 -196 0
-169 193 -196 0
169 193 196 0
-169 -193 196 0
-197 -199 0
-199 -200 0
197 199 200 0
197 200 -202 0
-197 -200 -202 0
-197 200 202 0
197 -200 202 0
199 -203 0
-203 -204 0
-199 203 204 0
-199 204 -206 0
199 -204 -206 0
199 204 206 0
-199 -204 206 0
203 -207 0
-207 -208 0
-203 207 208 0
-203 208 -210 0
203 -208 -210 0
203 208 210 0
-203 -208 210 0
207 -211 0
-211 -212 0
-207 211 212 0
-146 -207 212 0
-146 207 -212 0
146 207 212 0
146 -207 -212 0
-142 211 0
-142 -214 0
142 -211 214 0
-135 -211 214 0
-135 211 -214 0
135 211 214 0
135 -211 -214 0
-123 142 0
-123 -216 0
123 -142 216 0
-117 -142 216 0
-117 142 -216 0
117 142 216 0
117 -142 -216 0
123 -139 0
-139 -218 0
-123 139 218 0
-123 -132 218 0
123 -132 -218 0
123 132 218 0
-123 132 -218 0
-128 200 0
-128 197 0
128 -197 -200 0
-197 -198 -200 0
197 -198 200 0
197 198 -200 0
-197 198 200 0
-200 201 -204 0
-128 201 -204 0
-128 -200 201 0
200 -201 204 0
128 -201 204 0
128 200 -201 0
-201 204 -205 0
200 -201 -205 0
128 -201 -205 0
201 -204 205 0
-200 201 205 0
-128 201 205 0
-128 -200 -204 205 0
128 200 204 -205 0
-204 -208 209 0
-201 -208 209 0
-201 -204 209 0
204 208 -209 0
201 208 -209 0
201 204 -209 0
208 -209 -213 0
204 -209 -213 0
201 -209 -213 0
-208 209 213 0
-204 209 213 0
-201 209 213 0
-201 -204 -208 213 0
201 204 208 -213 0
-208 -212 215 0
-209 -212 215 0
-208 -209 215 0
208 212 -215 0
209 212 -215 0
208 209 -215 0
212 -215 -217 0
208 -215 -217 0
209 -215 -217 0
-212 215 217 0
-208 215 217 0
-209 215 217 0
-208 -209 -212 217 0
208 209 212 -217 0
-212 -214 219 0
-214 -215 219 0
-212 -215 219 0
212 214 -219 0
214 215 -219 0
212 215 -219 0
-92 214 -219 0
-92 212 -219 0
-92 215 -219 0
92 -214 219 0
92 -212 219 0
92 -215 219 0
92 -212 -214 -215 0
-92 212 214 215 0
91 -214 -216 0
91 -216 -219 0
91 -214 -219 0
-91 214 216 0
-91 216 219 0
-91 214 219 0
-90 -91 216 0
-90 -91 214 0
-90 -91 219 0
90 91 -216 0
90 91 -214 0
90 91 -219 0
90 -214 -216 -219 0
-90 214 216 219 0
89 -216 -218 0
89 -91 -218 0
89 -91 -216 0
-89 216 218 0
-89 91 218 0
-89 91 216 0
-88 -89 218 0
-88 -89 216 0
-88 -89 91 0
88 89 -218 0
88 89 -216 0
88 89 -91 0
88 -91 -216 -218 0
-88 91 216 218 0
-87 218 0
-87 89 0
87 -89 -218 0
-86 -89 -218 0
-86 89 218 0
86 89 -218 0
86 -89 218 0
-85 205 0
-85 197 0
85 -197 -205 0
-84 -197 -205 0
-84 197 205 0
84 197 -205 0
84 -197 205 0
83 -200 -213 0
83 -85 -213 0
83 -85 -200 0
-83 200 213 0
-83 85 213 0
-83 85 200 0
-82 -83 213 0
-82 -83 200 0
-82 -83 85 0
82 83 -213 0
82 83 -200 0
82 83 -85 0
82 -85 -200 -213 0
-82 85 200 213 0
81 -204 -217 0
81 -83 -217 0
81 -83 -204 0
-81 204 217 0
-81 83 217 0
-81 83 204 0
-80 -81 217 0
-80 -81 204 0
-80 -81 83 0
80 81 -217 0
80 81 -204 0
80 81 -83 0
80 -83 -204 -217 0
-80 83 204 217 0
79 -92 -208 0
79 -81 -92 0
79 -81 -208 0
-79 92 208 0
-79 81 92 0
-79 81 208 0
-78 -79 92 0
-78 -79 208 0
-78 -79 81 0
78 79 -92 0
78 79 -208 0
78 79 -81 0
78 -81 -92 -208 0
-78 81 92 208 0
77 -90 -212 0
77 -79 -90 0
77 -79 -212 0
-77 90 212 0
-77 79 90 0
-77 79 212 0
-76 -77 90 0
-76 -77 212 0
-76 -77 79 0
76 77 -90 0
76 77 -212 0
76 77 -79 0
76 -79 -90 -212 0
-76 79 90 212 0
75 -88 -214 0
75 -77 -88 0
75 -77 -214 0
-75 88 214 0
-75 77 88 0
-75 77 214 0
-74 -75 88 0
-74 -75 214 0
-74 -75 77 0
74 75 -88 0
74 75 -214 0
74 75 -77 0
74 -77 -88 -214 0
-74 77 88 214 0
73 -86 -216 0
73 -75 -86 0
73 -75 -216 0
-73 86 216 0
-73 75 86 0
-73 75 216 0
-72 -73 86 0
-72 -73 216 0
-72 -73 75 0
72 73 -86 0
72 73 -216 0
72 73 -75 0
72 -75 -86 -216 0
-72 75 86 216 0
71 -87 -218 0
71 -73 -87 0
71 -73 -218 0
-71 87 218 0
-71 73 87 0
-71 73 218 0
-70 -71 87 0
-70 -71 218 0
-70 -71 73 0
70 71 -87 0
70 71 -218 0
70 71 -73 0
70 -73 -87 -218 0
-70 73 87 218 0
-69 82 0
-69 197 0
69 -82 -197 0
-68 -82 -197 0
-68 82 197 0
68 -82 197 0
68 82 -197 0
67 -80 -200 0
67 -69 -80 0
67 -69 -200 0
-67 80 200 0
-67 69 80 0
-67 69 200 0
-66 -67 80 0
-66 -67 200 0
-66 -67 69 0
66 67 -80 0
66 67 -200 0
66 67 -69 0
66 -69 -80 -200 0
-66 69 80 200 0
65 -78 -204 0
65 -67 -78 0
65 -67 -204 0
-65 78 204 0
-65 67 78 0
-65 67 204 0
-64 -65 78 0
-64 -65 204 0
-64 -65 67 0
64 65 -78 0
64 65 -204 0
64 65 -67 0
64 -67 -78 -204 0
-64 67 78 204 0
63 -76 -208 0
63 -65 -76 0
63 -65 -208 0
-63 76 208 0
-63 65 76 0
-63 65 208 0
-62 -63 76 0
-62 -63 208 0
-62 -63 65 0
62 63 -76 0
62 63 -208 0
62 63 -65 0
62 -65 -76 -208 0
-62 65 76 208 0
61 -74 -212 0
61 -63 -74 0
61 -63 -212 0
-61 74 212 0
-61 63 74 0
-61 63 212 0
-60 -61 74 0
-60 -61 212 0
-60 -61 63 0
60 61 -74 0
60 61 -212 0
60 61 -63 0
60 -63 -74 -212 0
-60 63 74 212 0
59 -72 -214 0
59 -61 -72 0
59 -61 -214 0
-59 72 214 0
-59 61 72 0
-59 61 214 0
-58 -59 72 0
-58 -59 214 0
-58 -59 61 0
58 59 -72 0
58 59 -214 0
58 59 -61 0
58 -61 -72 -214 0
-58 61 72 214 0
57 -70 -216 0
57 -59 -70 0
57 -59 -216 0
-57 70 216 0
-57 59 70 0
-57 59 216 0
-56 -57 70 0
-56 -57 216 0
-56 -57 59 0
56 57 -70 0
56 57 -216 0
56 57 -59 0
56 -59 -70 -216 0
-56 59 70 216 0
55 -71 -218 0
55 -57 -71 0
55 -57 -218 0
-55 71 218 0
-55 57 71 0
-55 57 218 0
-54 -55 71 0
-54 -55 218 0
-54 -55 57 0
54 55 -71 0
54 55 -218 0
54 55 -57 0
54 -57 -71 -218 0
-54 57 71 218 0
-53 66 0
-53 197 0
53 -66 -197 0
-52 -66 -197 0
-52 66 197 0
52 -66 197 0
52 66 -197 0
51 -64 -200 0
51 -53 -64 0
51 -53 -200 0
-51 64 200 0
-51 53 64 0
-51 53 200 0
-50 -51 64 0
-50 -51 200 0
-50 -51 53 0
50 51 -64 0
50 51 -200 0
50 51 -53 0
50 -53 -64 -200 0
-50 53 64 200 0
49 -62 -204 0
49 -51 -62 0
49 -51 -204 0
-49 62 204 0
-49 51 62 0
-49 51 204 0
-48 -49 62 0
-48 -49 204 0
-48 -49 51 0
48 49 -62 0
48 49 -204 0
48 49 -51 0
48 -51 -62 -204 0
-48 51 62 204 0
47 -60 -208 0
47 -49 -60 0
47 -49 -208 0
-47 60 208 0
-47 49 60 0
-47 49 208 0
-46 -47 60 0
-46 -47 208 0
-46 -47 49 0
46 47 -60 0
46 47 -208 0
46 47 -49 0
46 -49 -60 -208 0
-46 49 60 208 0
45 -58 -212 0
45 -47 -58 0
45 -47 -212 0
-45 58 212 0
-45 47 58 0
-45 47 212 0
-44 -45 58 0
-44 -45 212 0
-44 -45 47 0
44 45 -58 0
44 45 -212 0
44 45 -47 0
44 -47 -58 -212 0
-44 47 58 212 0
43 -56 -214 0
43 -45 -56 0
43 -45 -214 0
-43 56 214 0
-43 45 56 0
-43 45 214 0
-42 -43 56 0
-42 -43 214 0
-42 -43 45 0
42 43 -56 0
42 43 -214 0
42 43 -45 0
42 -45 -56 -214 0
-42 45 56 214 0
41 -54 -216 0
41 -43 -54 0
41 -43 -216 0
-41 54 216 0
-41 43 54 0
-41 43 216 0
-40 -41 54 0
-40 -41 216 0
-40 -41 43 0
40 41 -54 0
40 41 -216 0
40 41 -43 0
40 -43 -54 -216 0
-40 43 54 216 0
39 -55 -218 0
39 -41 -55 0
39 -41 -218 0
-39 55 218 0
-39 41 55 0
-39 41 218 0
-38 -39 55 0
-38 -39 218 0
-38 -39 41 0
38 39 -55 0
38 39 -218 0
38 39 -41 0
38 -41 -55 -218 0
-38 41 55 218 0
-37 -197 0
-37 -198 0
37 197 198 0
-36 197 198 0
-36 -197 -198 0
36 -197 198 0
36 197 -198 0
-35 37 0
-35 -84 0
35 -37 84 0
-34 -37 84 0
-34 37 -84 0
34 37 84 0
34 -37 -84 0
-33 35 0
-33 -68 0
33 -35 68 0
-32 -35 68 0
-32 35 -68 0
32 35 68 0
32 -35 -68 0
-31 33 0
-31 -52 0
31 -33 52 0
-30 -33 52 0
-30 33 -52 0
30 33 52 0
30 -33 -52 0
-29 31 0
-29 -50 0
29 -31 50 0
-28 -31 50 0
-28 31 -50 0
28 31 50 0
28 -31 -50 0
-27 29 0
-27 -48 0
27 -29 48 0
-26 -29 48 0
-26 29 -48 0
26 29 48 0
26 -29 -48 0
-25 27 0
-25 -46 0
25 -27 46 0
-24 -27 46 0
-24 27 -46 0
24 27 46 0
24 -27 -46 0
-23 25 0
-23 -44 0
23 -25 44 0
-22 -25 44 0
-22 25 -44 0
22 25 44 0
22 -25 -44 0
-21 23 0
-21 -42 0
21 -23 42 0
-20 -23 42 0
-20 23 -42 0
20 23 42 0
20 -23 -42 0
-19 21 0
-19 -40 0
19 -21 40 0
-18 -21 40 0
-18 21 -40 0
18 21 40 0
18 -21 -40 0
-17 19 0
-17 -38 0
17 -19 38 0
-16 -19 38 0
-16 19 -38 0
16 19 38 0
16 -19 -38 0
-15 17 0
-15 -39 0
15 -17 39 0
-14 -17 39 0
-14 17 -39 0
14 17 39 0
14 -17 -39 0
-13 145 0
-13 197 0
13 -145 -197 0
-145 -197 0
145 197 0
12 -154 -198 0
12 -13 -154 0
12 -13 -198 0
-12 154 198 0
-12 13 154 0
-12 13 198 0
12 -154 0
12 -198 0
12 -13 0
-13 -154 -198 0
11 -84 -115 0
11 -12 -115 0
11 -12 -84 0
-11 84 115 0
-11 12 115 0
-11 12 84 0
-11 115 0
-11 84 0
-11 12 0
12 84 115 0
10 -68 -130 0
10 -11 -130 0
10 -11 -68 0
-10 68 130 0
-10 11 130 0
-10 11 68 0
10 -130 0
10 -68 0
10 -11 0
-11 -68 -130 0
9 -52 -108 0
9 -10 -108 0
9 -10 -52 0
-9 52 108 0
-9 10 108 0
-9 10 52 0
9 -108 0
9 -52 0
9 -10 0
-10 -52 -108 0
8 -50 -96 0
8 -9 -96 0
8 -9 -50 0
-8 50 96 0
-8 9 96 0
-8 9 50 0
8 -96 0
8 -50 0
8 -9 0
-9 -50 -96 0
7 -48 -94 0
7 -8 -94 0
7 -8 -48 0
-7 48 94 0
-7 8 94 0
-7 8 48 0
7 -94 0
7 -48 0
7 -8 0
-8 -48 -94 0
6 -46 -160 0
6 -7 -160 0
6 -7 -46 0
-6 46 160 0
-6 7 160 0
-6 7 46 0
-6 160 0
-6 46 0
-6 7 0
7 46 160 0
5 -44 -162 0
5 -6 -162 0
5 -6 -44 0
-5 44 162 0
-5 6 162 0
-5 6 44 0
5 -162 0
5 -44 0
5 -6 0
-6 -44 -162 0
4 -42 -164 0
4 -5 -164 0
4 -5 -42 0
-4 42 164 0
-4 5 164 0
-4 5 42 0
4 -164 0
4 -42 0
4 -5 0
-5 -42 -164 0
3 -40 -166 0
3 -4 -166 0
3 -4 -40 0
-3 40 166 0
-3 4 166 0
-3 4 40 0
3 -166 0
3 -40 0
3 -4 0
-4 -40 -166 0
2 -38 -168 0
2 -3 -168 0
2 -3 -38 0
-2 38 168 0
-2 3 168 0
-2 3 38 0
2 -168 0
2 -38 0
2 -3 0
-3 -38 -168 0
1 -39 -170 0
1 -2 -170 0
1 -2 -39 0
-1 39 170 0
-1 2 170 0
-1 2 39 0
1 -170 0
1 -39 0
1 -2 0
-2 -39 -170 0
-1 -169 0
1 -169 0
-1 169 0
